experiment/data/lkh-res/Vrp-Set-A-n53/Vrp-Set-A-n53-lkh/0.lkh1.vrp
NAME : 0
COMMENT : CVRP Instance
TYPE : CVRP
DIMENSION : 53
EDGE_WEIGHT_TYPE : EUC_2D
CAPACITY : 100
NODE_COORD_SECTION
1	2400	6300
2	3500	6000
3	7900	4600
4	300	4500
5	4200	5000
6	300	4000
7	2900	9600
8	4700	3000
9	5400	7700
10	3600	3000
11	8300	8600
12	3000	600
13	5500	2900
14	1300	200
15	100	1900
16	9800	100
17	7500	1000
18	3900	2300
19	6200	9100
20	9600	900
21	2700	8700
22	1400	1600
23	5200	4900
24	9500	2100
25	3000	600
26	1800	4000
27	8200	9000
28	5000	7900
29	4800	4900
30	8200	7300
31	6400	6200
32	3400	7800
33	8300	600
34	300	7700
35	1800	800
36	5300	8600
37	8800	5100
38	7700	5100
39	5800	8900
40	1200	4400
41	7000	8800
42	3600	1700
43	8500	2300
44	9300	3000
45	6800	6700
46	7100	3400
47	5600	7300
48	3700	3700
49	7800	2000
50	8800	6900
51	9500	4200
52	4400	7100
53	1800	100
DEMAND_SECTION
1	0
2	2
3	12
4	14
5	2
6	17
7	20
8	2
9	26
10	7
11	24
12	23
13	13
14	25
15	20
16	3
17	18
18	23
19	6
20	2
21	13
22	22
23	3
24	6
25	7
26	1
27	18
28	18
29	10
30	2
31	9
32	10
33	8
34	30
35	16
36	23
37	2
38	18
39	22
40	1
41	8
42	4
43	26
44	21
45	2
46	15
47	25
48	22
49	19
50	3
51	3
52	5
53	13
DEPOT_SECTION
1
-1
EOF
