experiment/data/lkh-res/Vrp-Set-A-n53/Vrp-Set-A-n53-lkh/0.lkh1.log
PARAMETER_FILE = baseline_results/cvrp_lkh/Vrp-Set-A-n53/Vrp-Set-A-n53-lkh/0.lkh1.par
Reading PROBLEM_FILE: "baseline_results/cvrp_lkh/Vrp-Set-A-n53/Vrp-Set-A-n53-lkh/0.lkh1.vrp" ... done
ASCENT_CANDIDATES = 50
BACKBONE_TRIALS = 0
BACKTRACKING = NO
# BWTSP =
# CANDIDATE_FILE =
CANDIDATE_SET_TYPE = ALPHA
# DISTANCE =
DEPOT = 1
# EDGE_FILE =
EXCESS = 0.0188679
EXTERNAL_SALESMEN = 0
EXTRA_CANDIDATES = 0 
EXTRA_CANDIDATE_SET_TYPE = QUADRANT
GAIN23 = NO
GAIN_CRITERION = YES
INITIAL_PERIOD = 100
INITIAL_STEP_SIZE = 1
INITIAL_TOUR_ALGORITHM = WALK
# INITIAL_TOUR_FILE = 
INITIAL_TOUR_FRACTION = 1.000
# INPUT_TOUR_FILE = 
KICK_TYPE = 4
KICKS = 1
# MAX_BREADTH =
MAKESPAN = NO
MAX_CANDIDATES = 5 
MAX_SWAPS = 0
MAX_TRIALS = 10000
# MERGE_TOUR_FILE =
MOVE_TYPE = 5 SPECIAL
MTSP_MIN_SIZE = 1
MTSP_MAX_SIZE = 52
# MTSP_SOLUTION_FILE = 
# NONSEQUENTIAL_MOVE_TYPE = 5
# OPTIMUM =
OUTPUT_TOUR_FILE = baseline_results/cvrp_lkh/Vrp-Set-A-n53/Vrp-Set-A-n53-lkh/0.lkh1.tour
PATCHING_A = 1 
PATCHING_C = 0 
# PI_FILE = 
POPMUSIC_INITIAL_TOUR = NO
POPMUSIC_MAX_NEIGHBORS = 5
POPMUSIC_SAMPLE_SIZE = 10
POPMUSIC_SOLUTIONS = 50
POPMUSIC_TRIALS = 1
POPULATION_SIZE = 10
PRECISION = 100
PROBLEM_FILE = baseline_results/cvrp_lkh/Vrp-Set-A-n53/Vrp-Set-A-n53-lkh/0.lkh1.vrp
RECOMBINATION = IPT
RESTRICTED_SEARCH = YES
RUNS = 1
SALESMEN = 7
SCALE = 1
SEED = 1234
# SINTEF_SOLUTION_FILE = 
STOP_AT_OPTIMUM = YES
SUBGRADIENT = YES
# SUBPROBLEM_SIZE =
# SUBPROBLEM_TOUR_FILE = 
SUBSEQUENT_MOVE_TYPE = 5 SPECIAL
SUBSEQUENT_PATCHING = YES
# TIME_LIMIT =
# TOTAL_TIME_LIMIT =
# TOUR_FILE = 
TRACE_LEVEL = 1
VEHICLES = 7

Lower bound = 73560.0, Ascent time = 0.01 sec.
Cand.min = 5, Cand.avg = 5.0, Cand.max = 5
Preprocessing time = 0.01 sec.
* 1: Cost = 0_122956, Time = 0.01 sec. 
Writing OUTPUT_TOUR_FILE: "baseline_results/cvrp_lkh/Vrp-Set-A-n53/Vrp-Set-A-n53-lkh/0.lkh1.tour" ... done
* 3: Cost = 0_122783, Time = 0.02 sec. 
Writing OUTPUT_TOUR_FILE: "baseline_results/cvrp_lkh/Vrp-Set-A-n53/Vrp-Set-A-n53-lkh/0.lkh1.tour" ... done
* 4: Cost = 0_114803, Time = 0.02 sec. 
Writing OUTPUT_TOUR_FILE: "baseline_results/cvrp_lkh/Vrp-Set-A-n53/Vrp-Set-A-n53-lkh/0.lkh1.tour" ... done
* 5: Cost = 0_109802, Time = 0.03 sec. 
Writing OUTPUT_TOUR_FILE: "baseline_results/cvrp_lkh/Vrp-Set-A-n53/Vrp-Set-A-n53-lkh/0.lkh1.tour" ... done
* 6: Cost = 0_109785, Time = 0.04 sec. 
Writing OUTPUT_TOUR_FILE: "baseline_results/cvrp_lkh/Vrp-Set-A-n53/Vrp-Set-A-n53-lkh/0.lkh1.tour" ... done
* 8: Cost = 0_107897, Time = 0.04 sec. 
Writing OUTPUT_TOUR_FILE: "baseline_results/cvrp_lkh/Vrp-Set-A-n53/Vrp-Set-A-n53-lkh/0.lkh1.tour" ... done
* 11: Cost = 0_107692, Time = 0.05 sec. 
Writing OUTPUT_TOUR_FILE: "baseline_results/cvrp_lkh/Vrp-Set-A-n53/Vrp-Set-A-n53-lkh/0.lkh1.tour" ... done
* 12: Cost = 0_106415, Time = 0.06 sec. 
Writing OUTPUT_TOUR_FILE: "baseline_results/cvrp_lkh/Vrp-Set-A-n53/Vrp-Set-A-n53-lkh/0.lkh1.tour" ... done
* 14: Cost = 0_105495, Time = 0.07 sec. 
Writing OUTPUT_TOUR_FILE: "baseline_results/cvrp_lkh/Vrp-Set-A-n53/Vrp-Set-A-n53-lkh/0.lkh1.tour" ... done
* 17: Cost = 0_103160, Time = 0.09 sec. 
Writing OUTPUT_TOUR_FILE: "baseline_results/cvrp_lkh/Vrp-Set-A-n53/Vrp-Set-A-n53-lkh/0.lkh1.tour" ... done
* 19: Cost = 0_102861, Time = 0.09 sec. 
Writing OUTPUT_TOUR_FILE: "baseline_results/cvrp_lkh/Vrp-Set-A-n53/Vrp-Set-A-n53-lkh/0.lkh1.tour" ... done
* 26: Cost = 0_102814, Time = 0.11 sec. 
Writing OUTPUT_TOUR_FILE: "baseline_results/cvrp_lkh/Vrp-Set-A-n53/Vrp-Set-A-n53-lkh/0.lkh1.tour" ... done
* 32: Cost = 0_102120, Time = 0.12 sec. 
Writing OUTPUT_TOUR_FILE: "baseline_results/cvrp_lkh/Vrp-Set-A-n53/Vrp-Set-A-n53-lkh/0.lkh1.tour" ... done
* 44: Cost = 0_102015, Time = 0.15 sec. 
Writing OUTPUT_TOUR_FILE: "baseline_results/cvrp_lkh/Vrp-Set-A-n53/Vrp-Set-A-n53-lkh/0.lkh1.tour" ... done
* 2268: Cost = 0_101382, Time = 4.58 sec. 
Writing OUTPUT_TOUR_FILE: "baseline_results/cvrp_lkh/Vrp-Set-A-n53/Vrp-Set-A-n53-lkh/0.lkh1.tour" ... done
* 2379: Cost = 0_101293, Time = 4.99 sec. 
Writing OUTPUT_TOUR_FILE: "baseline_results/cvrp_lkh/Vrp-Set-A-n53/Vrp-Set-A-n53-lkh/0.lkh1.tour" ... done
* 2398: Cost = 0_101226, Time = 5.02 sec. 
Writing OUTPUT_TOUR_FILE: "baseline_results/cvrp_lkh/Vrp-Set-A-n53/Vrp-Set-A-n53-lkh/0.lkh1.tour" ... done
Population:
  1: 0_101226
Run 1: Cost = 0_101226, Time = 23.94 sec. 

Successes/Runs = 0/1 
Cost.min = 101226, Cost.avg = 101226.00, Cost.max = 101226
Gap.min = 0.0000%, Gap.avg = 0.0000%, Gap.max = 0.0000%
Penalty.min = 0, Penalty.avg = 0.00, Penalty.max = 0
Trials.min = 10000, Trials.avg = 10000.0, Trials.max = 10000
Time.min = 23.94 sec., Time.avg = 23.94 sec., Time.max = 23.94 sec.
Time.total = 23.95 sec.
  Size.min = 4, Size.max = 11, Penalty = 0
  Cost.min = 8879, Cost.max = 21988, Cost.sum = 101226
Best CVRP solution:
  Cost = 0_101226

