experiment/data/lkh-res/Vrp-Set-A-n53/Vrp-Set-A-n53-lkh/0.lkh1.tour
NAME : 0.101226.tour
COMMENT : Length = 101226
COMMENT : Found by LKH-3 [Keld Helsgaun] Tue Apr  9 00:44:35 2024
TYPE : TOUR
DIMENSION : 59
TOUR_SECTION
1
29
46
49
43
3
38
55
10
18
42
25
12
53
35
26
58
39
19
41
27
11
50
30
45
31
23
5
56
40
22
14
15
6
4
57
37
51
44
24
20
16
33
17
13
8
48
54
52
28
36
9
47
2
59
34
7
21
32
-1
EOF
